#**********************************************************************************************************
#*                              Generated by cif2cell 2.0.0 2023-12-21 13:15                              *
#*             T. Bjorkman, Comp. Phys. Commun. 182, 1183-1186 (2011). Please cite generously.            *
#*                                                                                                        *
#*                           Data obtained from ICSD. Reference number : 22434                            *
#*                                                Ag   ()                                                 *
#* Failed to get author information, Physica B: Condensed Matter (Amsterdam, Netherlands) 575, 1-8 (2019) *
#**********************************************************************************************************

%BLOCK LATTICE_CART
ang    # angstrom units
   2.016000000000000   2.016000000000000   0.000000000000000
   2.016000000000000   0.000000000000000   2.016000000000000
   0.000000000000000   2.016000000000000   2.016000000000000
%ENDBLOCK LATTICE_CART

%BLOCK POSITIONS_FRAC
Ag   0.000000000000000   0.000000000000000   0.000000000000000 
%ENDBLOCK POSITIONS_FRAC

symmetry_generate
kpoint_mp_spacing : 0.015
