#************************************************************************************
#*                   Generated by cif2cell 2.0.0 2023-12-21 13:15                   *
#*  T. Bjorkman, Comp. Phys. Commun. 182, 1183-1186 (2011). Please cite generously. *
#*                                                                                  *
#*                Data obtained from ICSD. Reference number : 18839                 *
#*                                     Al   ()                                      *
#*  Failed to get author information, Chemistry of Materials 32, 2518-2531 (2020)   *
#************************************************************************************

%BLOCK LATTICE_CART
ang    # angstrom units
   2.024700000000000   2.024700000000000   0.000000000000000
   2.024700000000000   0.000000000000000   2.024700000000000
   0.000000000000000   2.024700000000000   2.024700000000000
%ENDBLOCK LATTICE_CART

%BLOCK POSITIONS_FRAC
Al   0.000000000000000   0.000000000000000   0.000000000000000 
%ENDBLOCK POSITIONS_FRAC

symmetry_generate
kpoint_mp_spacing : 0.015
