#******************************************************************************************************************
#*                                  Generated by cif2cell 2.0.0 2023-12-21 13:15                                  *
#*                 T. Bjorkman, Comp. Phys. Commun. 182, 1183-1186 (2011). Please cite generously.                *
#*                                                                                                                *
#*                                Data obtained from ICSD. Reference number : 7954                                *
#*                                                    Cu   ()                                                     *
#* Failed to get author information, Acta Crystallographica, Section C: Structural Chemistry 74, 1020-1025 (2018) *
#******************************************************************************************************************

%BLOCK LATTICE_CART
ang    # angstrom units
   1.797100000000000   1.797100000000000   0.000000000000000
   1.797100000000000   0.000000000000000   1.797100000000000
   0.000000000000000   1.797100000000000   1.797100000000000
%ENDBLOCK LATTICE_CART

%BLOCK POSITIONS_FRAC
Cu   0.000000000000000   0.000000000000000   0.000000000000000 
%ENDBLOCK POSITIONS_FRAC

symmetry_generate
kpoint_mp_spacing : 0.015
