#************************************************************************************************************************************************************
#*                                                       Generated by cif2cell 2.0.0 2023-12-21 13:15                                                       *
#*                                      T. Bjorkman, Comp. Phys. Commun. 182, 1183-1186 (2011). Please cite generously.                                     *
#*                                                                                                                                                          *
#*                                                    Data obtained from ICSD. Reference number : 26909                                                     *
#*                                                                        Li Cl   ()                                                                        *
#* Failed to get author information, Zeitschrift fuer Physikalische Chemie, Abteilung B: Chemie derElementarprozesse, Aufbau der Materie 40, 146-150 (1938) *
#************************************************************************************************************************************************************

%BLOCK LATTICE_CART
ang    # angstrom units
   2.564760000000000   2.564760000000000   0.000000000000000
   2.564760000000000   0.000000000000000   2.564760000000000
   0.000000000000000   2.564760000000000   2.564760000000000
%ENDBLOCK LATTICE_CART

%BLOCK POSITIONS_FRAC
Cl   0.500000000000000   0.500000000000000   0.500000000000000 
Li   0.000000000000000   0.000000000000000   0.000000000000000 
%ENDBLOCK POSITIONS_FRAC

symmetry_generate
kpoint_mp_spacing : 0.015
