#***************************************************************************************
#*                     Generated by cif2cell 2.0.0 2023-12-21 13:15                    *
#*    T. Bjorkman, Comp. Phys. Commun. 182, 1183-1186 (2011). Please cite generously.  *
#*                                                                                     *
#*                   Data obtained from ICSD. Reference number : 9863                  *
#*                                  Mg O   (Periclase)                                 *
#* Failed to get author information, Proceedings of the Japan Academy 55, 43-48 (1979) *
#***************************************************************************************

%BLOCK LATTICE_CART
ang    # angstrom units
   2.108500000000000   2.108500000000000   0.000000000000000
   2.108500000000000   0.000000000000000   2.108500000000000
   0.000000000000000   2.108500000000000   2.108500000000000
%ENDBLOCK LATTICE_CART

%BLOCK POSITIONS_FRAC
Mg   0.000000000000000   0.000000000000000   0.000000000000000 
O    0.500000000000000   0.500000000000000   0.500000000000000 
%ENDBLOCK POSITIONS_FRAC

symmetry_generate
kpoint_mp_spacing : 0.015
