#******************************************************************************************
#*                      Generated by cif2cell 2.0.0 2023-12-21 13:15                      *
#*     T. Bjorkman, Comp. Phys. Commun. 182, 1183-1186 (2011). Please cite generously.    *
#*                                                                                        *
#*                   Data obtained from ICSD. Reference number : 262837                   *
#*                                       Na F   ()                                        *
#* Failed to get author information, Journal of Solid State Chemistry 191, 167-174 (2012) *
#******************************************************************************************

%BLOCK LATTICE_CART
ang    # angstrom units
   2.317700000000000   2.317700000000000   0.000000000000000
   2.317700000000000   0.000000000000000   2.317700000000000
   0.000000000000000   2.317700000000000   2.317700000000000
%ENDBLOCK LATTICE_CART

%BLOCK POSITIONS_FRAC
Na   0.000000000000000   0.000000000000000   0.000000000000000 
F    0.500000000000000   0.500000000000000   0.500000000000000 
%ENDBLOCK POSITIONS_FRAC

symmetry_generate
kpoint_mp_spacing : 0.015
