#************************************************************************************
#*                   Generated by cif2cell 2.0.0 2023-12-21 13:15                   *
#*  T. Bjorkman, Comp. Phys. Commun. 182, 1183-1186 (2011). Please cite generously. *
#*                                                                                  *
#*                Data obtained from ICSD. Reference number : 52251                 *
#*                                 Pd   (Palladium)                                 *
#*   Failed to get author information, Philosophical Magazine  15, 472-488 (1933)   *
#************************************************************************************

%BLOCK LATTICE_CART
ang    # angstrom units
   1.945100000000000   1.945100000000000   0.000000000000000
   1.945100000000000   0.000000000000000   1.945100000000000
   0.000000000000000   1.945100000000000   1.945100000000000
%ENDBLOCK LATTICE_CART

%BLOCK POSITIONS_FRAC
Pd   0.000000000000000   0.000000000000000   0.000000000000000 
%ENDBLOCK POSITIONS_FRAC

symmetry_generate
kpoint_mp_spacing : 0.015
