#**************************************************************************************************************
#*                                Generated by cif2cell 2.0.0 2023-12-21 13:15                                *
#*               T. Bjorkman, Comp. Phys. Commun. 182, 1183-1186 (2011). Please cite generously.              *
#*                                                                                                            *
#*                             Data obtained from ICSD. Reference number : 171677                             *
#*                                                  Rh   ()                                                   *
#* Failed to get author information, Acta Crystallographica, Section B: Structural Science 62, 173-189 (2006) *
#**************************************************************************************************************

%BLOCK LATTICE_CART
ang    # angstrom units
   1.795483000000000   1.795483000000000   0.000000000000000
   1.795483000000000   0.000000000000000   1.795483000000000
   0.000000000000000   1.795483000000000   1.795483000000000
%ENDBLOCK LATTICE_CART

%BLOCK POSITIONS_FRAC
Rh   0.000000000000000   0.000000000000000   0.000000000000000 
%ENDBLOCK POSITIONS_FRAC

symmetry_generate
kpoint_mp_spacing : 0.015
